N = 6;
Capacity = 12;
Demand = [8, 1, 6, 4, 7, 7];
Distance = [|
  0, 38, 17, 49, 31, 37, 49
| 38, 0, 38, 68, 57, 13, 22
| 17, 38, 0, 34, 49, 42, 55
| 49, 68, 34, 0, 78, 75, 88
| 31, 57, 49, 78, 0, 48, 55
| 37, 13, 42, 75, 48, 0, 13
| 49, 22, 55, 88, 55, 13, 0
|];
